ModelsBigM/BigMLazyCon_19.lp
\ENCODING=ISO-8859-1
\Problem name: ilog.cplex

Minimize
 obj: _20step1#5 + _20step2#6 + _20step3#7 + _53step1#21 + _53step2#22
      + _53step3#23 + _40step1#41 + _40step2#42 + _40step3#43 + _59step1#49
      + _59step2#50 + _59step3#51 + _60step1#72 + _60step2#73 + _60step3#74
      + _61step1#95 + _61step2#96 + _61step3#97 + _62step1#113 + _62step2#114
      + _62step3#115
Subject To
 LB_20T10#0:                   _20T10#0 >= 121
 LB_20T9#1:                    _20T9#1 >= 541
 prec_20T9_20T10#2:            - _20T10#0 + _20T9#1 >= 420
 LB_20T8#3:                    _20T8#2 >= 811
 prec_20T8_20T9#4:             - _20T9#1 + _20T8#2 >= 270
 LB_20T7#5:                    _20T7#3 >= 1141
 prec_20T7_20T8#6:             - _20T8#2 + _20T7#3 >= 330
 LB_20T6#7:                    _20T6#4 >= 1321
 prec_20T6_20T7#8:             - _20T7#3 + _20T6#4 >= 180
 _20step1#9:                   _20T6#4 - 78438 _20step1#5 <= 1200
 _20step2#10:                  _20T6#4 - 78258 _20step2#6 <= 1380
 _20step3#11:                  _20T6#4 - 78078 _20step3#7 <= 1560
 LB_53T18#12:                  _53T18#8 >= 93
 LB_53T17#13:                  _53T17#9 >= 403
 prec_53T17_53T18#14:          - _53T18#8 + _53T17#9 >= 310
 LB_53T16#15:                  _53T16#10 >= 643
 prec_53T16_53T17#16:          - _53T17#9 + _53T16#10 >= 240
 LB_53T15#17:                  _53T15#11 >= 823
 prec_53T15_53T16#18:          - _53T16#10 + _53T15#11 >= 180
 LB_53T14#19:                  _53T14#12 >= 1393
 prec_53T14_53T15#20:          - _53T15#11 + _53T14#12 >= 570
 LB_53T13#21:                  _53T13#13 >= 1843
 prec_53T13_53T14#22:          - _53T14#12 + _53T13#13 >= 450
 LB_53T12#23:                  _53T12#14 >= 1957
 prec_53T12_53T13#24:          - _53T13#13 + _53T12#14 >= 114
 LB_53T11#25:                  _53T11#15 >= 2143
 prec_53T11_53T12#26:          - _53T12#14 + _53T11#15 >= 186
 LB_53T10#27:                  _53T10#16 >= 2448
 prec_53T10_53T11#28:          - _53T11#15 + _53T10#16 >= 305
 LB_53T9#29:                   _53T9#17 >= 2653
 prec_53T9_53T10#30:           - _53T10#16 + _53T9#17 >= 205
 LB_53T8#31:                   _53T8#18 >= 2923
 prec_53T8_53T9#32:            - _53T9#17 + _53T8#18 >= 270
 LB_53T7#33:                   _53T7#19 >= 3245
 prec_53T7_53T8#34:            - _53T8#18 + _53T7#19 >= 322
 LB_53T6#35:                   _53T6#20 >= 3793
 prec_53T6_53T7#36:            - _53T7#19 + _53T6#20 >= 548
 _53step1#37:                  _53T6#20 - 78438 _53step1#21 <= 3700
 _53step2#38:                  _53T6#20 - 78258 _53step2#22 <= 3880
 _53step3#39:                  _53T6#20 - 78078 _53step3#23 <= 4060
 LB_40T9#40:                   _40T9#24 >= 4978
 LB_40T10#41:                  _40T10#25 >= 6415
 prec_40T10_40T9#42:           - _40T9#24 + _40T10#25 >= 1437
 LB_40T11#43:                  _40T11#26 >= 6688
 prec_40T11_40T10#44:          - _40T10#25 + _40T11#26 >= 273
 LB_40T12#45:                  _40T12#27 >= 7028
 prec_40T12_40T11#46:          - _40T11#26 + _40T12#27 >= 340
 LB_40T13#47:                  _40T13#28 >= 7141
 prec_40T13_40T12#48:          - _40T12#27 + _40T13#28 >= 113
 LB_40T14#49:                  _40T14#29 >= 7216
 prec_40T14_40T13#50:          - _40T13#28 + _40T14#29 >= 75
 LB_40T15#51:                  _40T15#30 >= 8034
 prec_40T15_40T14#52:          - _40T14#29 + _40T15#30 >= 818
 LB_40T16#53:                  _40T16#31 >= 8138
 prec_40T16_40T15#54:          - _40T15#30 + _40T16#31 >= 104
 LB_40T17#55:                  _40T17#32 >= 8455
 prec_40T17_40T16#56:          - _40T16#31 + _40T17#32 >= 317
 LB_40T18#57:                  _40T18#33 >= 8600
 prec_40T18_40T17#58:          - _40T17#32 + _40T18#33 >= 145
 LB_40T19#59:                  _40T19#34 >= 8777
 prec_40T19_40T18#60:          - _40T18#33 + _40T19#34 >= 177
 LB_40T20#61:                  _40T20#35 >= 8907
 prec_40T20_40T19#62:          - _40T19#34 + _40T20#35 >= 130
 LB_40T21#63:                  _40T21#36 >= 8950
 prec_40T21_40T20#64:          - _40T20#35 + _40T21#36 >= 43
 LB_40T22#65:                  _40T22#37 >= 9094
 prec_40T22_40T21#66:          - _40T21#36 + _40T22#37 >= 144
 LB_40T23#67:                  _40T23#38 >= 9655
 prec_40T23_40T22#68:          - _40T22#37 + _40T23#38 >= 561
 LB_40T24#69:                  _40T24#39 >= 9738
 prec_40T24_40T23#70:          - _40T23#38 + _40T24#39 >= 83
 LB_40T25#71:                  _40T25#40 >= 9877
 prec_40T25_40T24#72:          - _40T24#39 + _40T25#40 >= 139
 _40step1#73:                  _40T25#40 - 78438 _40step1#41 <= 4899
 _40step2#74:                  _40T25#40 - 78258 _40step2#42 <= 5079
 _40step3#75:                  _40T25#40 - 78078 _40step3#43 <= 5259
 LB_59T5#76:                   _59T5#44 >= 5820
 LB_59T4#77:                   _59T4#45 >= 8052
 prec_59T4_59T5#78:            - _59T5#44 + _59T4#45 >= 2232
 LB_59T3#79:                   _59T3#46 >= 8360
 prec_59T3_59T4#80:            - _59T4#45 + _59T3#46 >= 308
 LB_59T2#81:                   _59T2#47 >= 9420
 prec_59T2_59T3#82:            - _59T3#46 + _59T2#47 >= 1060
 LB_59T1#83:                   _59T1#48 >= 9969
 prec_59T1_59T2#84:            - _59T2#47 + _59T1#48 >= 549
 _59step1#85:                  _59T1#48 - 78438 _59step1#49 <= 9969
 _59step2#86:                  _59T1#48 - 78258 _59step2#50 <= 10149
 _59step3#87:                  _59T1#48 - 78078 _59step3#51 <= 10329
 LB_60T20#88:                  _60T20#52 >= 1
 LB_60T19#89:                  _60T19#53 >= 60
 prec_60T19_60T20#90:          - _60T20#52 + _60T19#53 >= 59
 LB_60T18#91:                  _60T18#54 >= 238
 prec_60T18_60T19#92:          - _60T19#53 + _60T18#54 >= 178
 LB_60T17#93:                  _60T17#55 >= 465
 prec_60T17_60T18#94:          - _60T18#54 + _60T17#55 >= 227
 LB_60T16#95:                  _60T16#56 >= 1381
 prec_60T16_60T17#96:          - _60T17#55 + _60T16#56 >= 916
 LB_60T15#97:                  _60T15#57 >= 1883
 prec_60T15_60T16#98:          - _60T16#56 + _60T15#57 >= 502
 LB_60T14#99:                  _60T14#58 >= 1984
 prec_60T14_60T15#100:         - _60T15#57 + _60T14#58 >= 101
 LB_60T13#101:                 _60T13#59 >= 2192
 prec_60T13_60T14#102:         - _60T14#58 + _60T13#59 >= 208
 LB_60T12#103:                 _60T12#60 >= 2296
 prec_60T12_60T13#104:         - _60T13#59 + _60T12#60 >= 104
 LB_60T11#105:                 _60T11#61 >= 2451
 prec_60T11_60T12#106:         - _60T12#60 + _60T11#61 >= 155
 LB_60T10#107:                 _60T10#62 >= 2858
 prec_60T10_60T11#108:         - _60T11#61 + _60T10#62 >= 407
 LB_60T9#109:                  _60T9#63 >= 3146
 prec_60T9_60T10#110:          - _60T10#62 + _60T9#63 >= 288
 LB_60T8#111:                  _60T8#64 >= 4081
 prec_60T8_60T9#112:           - _60T9#63 + _60T8#64 >= 935
 LB_60T7#113:                  _60T7#65 >= 4851
 prec_60T7_60T8#114:           - _60T8#64 + _60T7#65 >= 770
 LB_60T6#115:                  _60T6#66 >= 5092
 prec_60T6_60T7#116:           - _60T7#65 + _60T6#66 >= 241
 LB_60T5#117:                  _60T5#67 >= 6001
 prec_60T5_60T6#118:           - _60T6#66 + _60T5#67 >= 909
 LB_60T4#119:                  _60T4#68 >= 6614
 prec_60T4_60T5#120:           - _60T5#67 + _60T4#68 >= 613
 LB_60T3#121:                  _60T3#69 >= 6880
 prec_60T3_60T4#122:           - _60T4#68 + _60T3#69 >= 266
 LB_60T2#123:                  _60T2#70 >= 7360
 prec_60T2_60T3#124:           - _60T3#69 + _60T2#70 >= 480
 LB_60T1#125:                  _60T1#71 >= 7575
 prec_60T1_60T2#126:           - _60T2#70 + _60T1#71 >= 215
 _60step1#127:                 _60T1#71 - 78438 _60step1#72 <= 7574
 _60step2#128:                 _60T1#71 - 78258 _60step2#73 <= 7754
 _60step3#129:                 _60T1#71 - 78078 _60step3#74 <= 7934
 LB_61T25#130:                 _61T25#75 >= 720
 LB_61T24#131:                 _61T24#76 >= 937
 prec_61T24_61T25#132:         - _61T25#75 + _61T24#76 >= 217
 LB_61T23#133:                 _61T23#77 >= 1110
 prec_61T23_61T24#134:         - _61T24#76 + _61T23#77 >= 173
 LB_61T22#135:                 _61T22#78 >= 1350
 prec_61T22_61T23#136:         - _61T23#77 + _61T22#78 >= 240
 LB_61T21#137:                 _61T21#79 >= 1530
 prec_61T21_61T22#138:         - _61T22#78 + _61T21#79 >= 180
 LB_61T20#139:                 _61T20#80 >= 1680
 prec_61T20_61T21#140:         - _61T21#79 + _61T20#80 >= 150
 LB_61T19#141:                 _61T19#81 >= 1725
 prec_61T19_61T20#142:         - _61T20#80 + _61T19#81 >= 45
 LB_61T18#143:                 _61T18#82 >= 1980
 prec_61T18_61T19#144:         - _61T19#81 + _61T18#82 >= 255
 LB_61T17#145:                 _61T17#83 >= 2310
 prec_61T17_61T18#146:         - _61T18#82 + _61T17#83 >= 330
 LB_61T16#147:                 _61T16#84 >= 2550
 prec_61T16_61T17#148:         - _61T17#83 + _61T16#84 >= 240
 LB_61T15#149:                 _61T15#85 >= 2790
 prec_61T15_61T16#150:         - _61T16#84 + _61T15#85 >= 240
 LB_61T14#151:                 _61T14#86 >= 2970
 prec_61T14_61T15#152:         - _61T15#85 + _61T14#86 >= 180
 LB_61T13#153:                 _61T13#87 >= 3171
 prec_61T13_61T14#154:         - _61T14#86 + _61T13#87 >= 201
 LB_61T12#155:                 _61T12#88 >= 3255
 prec_61T12_61T13#156:         - _61T13#87 + _61T12#88 >= 84
 LB_61T11#157:                 _61T11#89 >= 3460
 prec_61T11_61T12#158:         - _61T12#88 + _61T11#89 >= 205
 LB_61T10#159:                 _61T10#90 >= 4340
 prec_61T10_61T11#160:         - _61T11#89 + _61T10#90 >= 880
 LB_61T9#161:                  _61T9#91 >= 4760
 prec_61T9_61T10#162:          - _61T10#90 + _61T9#91 >= 420
 LB_61T8#163:                  _61T8#92 >= 5030
 prec_61T8_61T9#164:           - _61T9#91 + _61T8#92 >= 270
 LB_61T7#165:                  _61T7#93 >= 5300
 prec_61T7_61T8#166:           - _61T8#92 + _61T7#93 >= 270
 LB_61T6#167:                  _61T6#94 >= 5480
 prec_61T6_61T7#168:           - _61T7#93 + _61T6#94 >= 180
 _61step1#169:                 _61T6#94 - 78438 _61step1#95 <= 5480
 _61step2#170:                 _61T6#94 - 78258 _61step2#96 <= 5660
 _61step3#171:                 _61T6#94 - 78078 _61step3#97 <= 5840
 LB_62T11#172:                 _62T11#98 >= 121
 LB_62T12#173:                 _62T12#99 >= 541
 prec_62T12_62T11#174:         - _62T11#98 + _62T12#99 >= 420
 LB_62T13#175:                 _62T13#100 >= 662
 prec_62T13_62T12#176:         - _62T12#99 + _62T13#100 >= 121
 LB_62T14#177:                 _62T14#101 >= 742
 prec_62T14_62T13#178:         - _62T13#100 + _62T14#101 >= 80
 LB_62T15#179:                 _62T15#102 >= 961
 prec_62T15_62T14#180:         - _62T14#101 + _62T15#102 >= 219
 LB_62T16#181:                 _62T16#103 >= 1141
 prec_62T16_62T15#182:         - _62T15#102 + _62T16#103 >= 180
 LB_62T17#183:                 _62T17#104 >= 1261
 prec_62T17_62T16#184:         - _62T16#103 + _62T17#104 >= 120
 LB_62T18#185:                 _62T18#105 >= 1441
 prec_62T18_62T17#186:         - _62T17#104 + _62T18#105 >= 180
 LB_62T19#187:                 _62T19#106 >= 1861
 prec_62T19_62T18#188:         - _62T18#105 + _62T19#106 >= 420
 LB_62T20#189:                 _62T20#107 >= 1951
 prec_62T20_62T19#190:         - _62T19#106 + _62T20#107 >= 90
 LB_62T21#191:                 _62T21#108 >= 1981
 prec_62T21_62T20#192:         - _62T20#107 + _62T21#108 >= 30
 LB_62T22#193:                 _62T22#109 >= 2161
 prec_62T22_62T21#194:         - _62T21#108 + _62T22#109 >= 180
 LB_62T23#195:                 _62T23#110 >= 2281
 prec_62T23_62T22#196:         - _62T22#109 + _62T23#110 >= 120
 LB_62T24#197:                 _62T24#111 >= 2401
 prec_62T24_62T23#198:         - _62T23#110 + _62T24#111 >= 120
 LB_62T25#199:                 _62T25#112 >= 2511
 prec_62T25_62T24#200:         - _62T24#111 + _62T25#112 >= 110
 _62step1#201:                 _62T25#112 - 78438 _62step1#113 <= 2390
 _62step2#202:                 _62T25#112 - 78258 _62step2#114 <= 2570
 _62step3#203:                 _62T25#112 - 78078 _62step3#115 <= 2750
 Domain_59T1_vs_60T1#204:      _59T1prec60T1#116 >= 0
 Domain_59T2_vs_60T2#205:      _59T2prec60T2#117 >= 0
 Domain_59T3_vs_60T3#206:      _59T3prec60T3#118 >= 0
 Domain_59T4_vs_60T4#207:      _59T4prec60T4#119 >= 0
 InitiDisj_59T5_vs_60T5#208:   - _59T5#44 + _60T5#67 + 78438 _59T5prec60T5#120
                               >= 2232
 InitiDisj_60T5_vs_59T5#209:   _59T5#44 - _60T5#67 - 78438 _59T5prec60T5#120
                               >= -77825
 Domain_20T6_vs_53T6#210:      _20T6prec53T6#121 >= 0
 Domain_20T6_vs_60T6#211:      _20T6prec60T6#122 >= 0
 Domain_20T6_vs_61T6#212:      _20T6prec61T6#123 >= 0
 Domain_53T6_vs_60T6#213:      _53T6prec60T6#124 >= 0
 Domain_53T6_vs_61T6#214:      _53T6prec61T6#125 >= 0
 InitiDisj_60T6_vs_61T6#215:   - _60T6#66 + _61T6#94 + 78438 _60T6prec61T6#126
                               >= 669
 InitiDisj_61T6_vs_60T6#216:   _60T6#66 - _61T6#94 - 78438 _60T6prec61T6#126
                               >= -77958
 Domain_20T7_vs_53T7#217:      _20T7prec53T7#127 >= 0
 Domain_20T7_vs_60T7#218:      _20T7prec60T7#128 >= 0
 Domain_20T7_vs_61T7#219:      _20T7prec61T7#129 >= 0
 Domain_53T7_vs_60T7#220:      _53T7prec60T7#130 >= 0
 Domain_53T7_vs_61T7#221:      _53T7prec61T7#131 >= 0
 Domain_60T7_vs_61T7#222:      _60T7prec61T7#132 >= 0
 Domain_20T8_vs_53T8#223:      _20T8prec53T8#133 >= 0
 Domain_20T8_vs_60T8#224:      _20T8prec60T8#134 >= 0
 Domain_20T8_vs_61T8#225:      _20T8prec61T8#135 >= 0
 Domain_53T8_vs_60T8#226:      _53T8prec60T8#136 >= 0
 Domain_53T8_vs_61T8#227:      _53T8prec61T8#137 >= 0
 Domain_60T8_vs_61T8#228:      _60T8prec61T8#138 >= 0
 Domain_20T9_vs_40T9#229:      _20T9prec40T9#139 >= 0
 Domain_20T9_vs_53T9#230:      _20T9prec53T9#140 >= 0
 Domain_20T9_vs_60T9#231:      _20T9prec60T9#141 >= 0
 Domain_20T9_vs_61T9#232:      _20T9prec61T9#142 >= 0
 Domain_40T9_vs_53T9#233:      _40T9prec53T9#143 >= 0
 Domain_40T9_vs_60T9#234:      _40T9prec60T9#144 >= 0
 InitiDisj_40T9_vs_61T9#235:   - _40T9#24 + _61T9#91 + 78438 _40T9prec61T9#145
                               >= 297
 InitiDisj_61T9_vs_40T9#236:   _40T9#24 - _61T9#91 - 78438 _40T9prec61T9#145
                               >= -78198
 Domain_53T9_vs_60T9#237:      _53T9prec60T9#146 >= 0
 Domain_53T9_vs_61T9#238:      _53T9prec61T9#147 >= 0
 Domain_60T9_vs_61T9#239:      _60T9prec61T9#148 >= 0
 Domain_20T10_vs_40T10#240:    _20T10prec40T10#149 >= 0
 Domain_20T10_vs_53T10#241:    _20T10prec53T10#150 >= 0
 Domain_20T10_vs_60T10#242:    _20T10prec60T10#151 >= 0
 Domain_20T10_vs_61T10#243:    _20T10prec61T10#152 >= 0
 Domain_40T10_vs_53T10#244:    _40T10prec53T10#153 >= 0
 Domain_40T10_vs_60T10#245:    _40T10prec60T10#154 >= 0
 Domain_40T10_vs_61T10#246:    _40T10prec61T10#155 >= 0
 Domain_53T10_vs_60T10#247:    _53T10prec60T10#156 >= 0
 Domain_53T10_vs_61T10#248:    _53T10prec61T10#157 >= 0
 Domain_60T10_vs_61T10#249:    _60T10prec61T10#158 >= 0
 Domain_40T11_vs_53T11#250:    _40T11prec53T11#159 >= 0
 Domain_40T11_vs_60T11#251:    _40T11prec60T11#160 >= 0
 Domain_40T11_vs_61T11#252:    _40T11prec61T11#161 >= 0
 Domain_40T11_vs_62T11#253:    _40T11prec62T11#162 >= 0
 Domain_53T11_vs_60T11#254:    _53T11prec60T11#163 >= 0
 Domain_53T11_vs_61T11#255:    _53T11prec61T11#164 >= 0
 Domain_53T11_vs_62T11#256:    _53T11prec62T11#165 >= 0
 Domain_60T11_vs_61T11#257:    _60T11prec61T11#166 >= 0
 Domain_60T11_vs_62T11#258:    _60T11prec62T11#167 >= 0
 Domain_61T11_vs_62T11#259:    _61T11prec62T11#168 >= 0
 Domain_40T12_vs_53T12#260:    _40T12prec53T12#169 >= 0
 Domain_40T12_vs_60T12#261:    _40T12prec60T12#170 >= 0
 Domain_40T12_vs_61T12#262:    _40T12prec61T12#171 >= 0
 Domain_40T12_vs_62T12#263:    _40T12prec62T12#172 >= 0
 Domain_53T12_vs_60T12#264:    _53T12prec60T12#173 >= 0
 Domain_53T12_vs_61T12#265:    _53T12prec61T12#174 >= 0
 Domain_53T12_vs_62T12#266:    _53T12prec62T12#175 >= 0
 Domain_60T12_vs_61T12#267:    _60T12prec61T12#176 >= 0
 Domain_60T12_vs_62T12#268:    _60T12prec62T12#177 >= 0
 Domain_61T12_vs_62T12#269:    _61T12prec62T12#178 >= 0
 Domain_40T13_vs_53T13#270:    _40T13prec53T13#179 >= 0
 Domain_40T13_vs_60T13#271:    _40T13prec60T13#180 >= 0
 Domain_40T13_vs_61T13#272:    _40T13prec61T13#181 >= 0
 Domain_40T13_vs_62T13#273:    _40T13prec62T13#182 >= 0
 Domain_53T13_vs_60T13#274:    _53T13prec60T13#183 >= 0
 Domain_53T13_vs_61T13#275:    _53T13prec61T13#184 >= 0
 Domain_53T13_vs_62T13#276:    _53T13prec62T13#185 >= 0
 Domain_60T13_vs_61T13#277:    _60T13prec61T13#186 >= 0
 Domain_60T13_vs_62T13#278:    _60T13prec62T13#187 >= 0
 Domain_61T13_vs_62T13#279:    _61T13prec62T13#188 >= 0
 Domain_40T14_vs_53T14#280:    _40T14prec53T14#189 >= 0
 Domain_40T14_vs_60T14#281:    _40T14prec60T14#190 >= 0
 Domain_40T14_vs_61T14#282:    _40T14prec61T14#191 >= 0
 Domain_40T14_vs_62T14#283:    _40T14prec62T14#192 >= 0
 Domain_53T14_vs_60T14#284:    _53T14prec60T14#193 >= 0
 Domain_53T14_vs_61T14#285:    _53T14prec61T14#194 >= 0
 Domain_53T14_vs_62T14#286:    _53T14prec62T14#195 >= 0
 Domain_60T14_vs_61T14#287:    _60T14prec61T14#196 >= 0
 Domain_60T14_vs_62T14#288:    _60T14prec62T14#197 >= 0
 Domain_61T14_vs_62T14#289:    _61T14prec62T14#198 >= 0
 Domain_40T15_vs_53T15#290:    _40T15prec53T15#199 >= 0
 Domain_40T15_vs_60T15#291:    _40T15prec60T15#200 >= 0
 Domain_40T15_vs_61T15#292:    _40T15prec61T15#201 >= 0
 Domain_40T15_vs_62T15#293:    _40T15prec62T15#202 >= 0
 Domain_53T15_vs_60T15#294:    _53T15prec60T15#203 >= 0
 Domain_53T15_vs_61T15#295:    _53T15prec61T15#204 >= 0
 InitiDisj_53T15_vs_62T15#296: - _53T15#11 + _62T15#102
                               + 78438 _53T15prec62T15#205 >= 390
 InitiDisj_62T15_vs_53T15#297: _53T15#11 - _62T15#102
                               - 78438 _53T15prec62T15#205 >= -78288
 Domain_60T15_vs_61T15#298:    _60T15prec61T15#206 >= 0
 Domain_60T15_vs_62T15#299:    _60T15prec62T15#207 >= 0
 Domain_61T15_vs_62T15#300:    _61T15prec62T15#208 >= 0
 Domain_40T16_vs_53T16#301:    _40T16prec53T16#209 >= 0
 Domain_40T16_vs_60T16#302:    _40T16prec60T16#210 >= 0
 Domain_40T16_vs_61T16#303:    _40T16prec61T16#211 >= 0
 Domain_40T16_vs_62T16#304:    _40T16prec62T16#212 >= 0
 Domain_53T16_vs_60T16#305:    _53T16prec60T16#213 >= 0
 Domain_53T16_vs_61T16#306:    _53T16prec61T16#214 >= 0
 Domain_53T16_vs_62T16#307:    _53T16prec62T16#215 >= 0
 Domain_60T16_vs_61T16#308:    _60T16prec61T16#216 >= 0
 Domain_60T16_vs_62T16#309:    _60T16prec62T16#217 >= 0
 Domain_61T16_vs_62T16#310:    _61T16prec62T16#218 >= 0
 Domain_40T17_vs_53T17#311:    _40T17prec53T17#219 >= 0
 Domain_40T17_vs_60T17#312:    _40T17prec60T17#220 >= 0
 Domain_40T17_vs_61T17#313:    _40T17prec61T17#221 >= 0
 Domain_40T17_vs_62T17#314:    _40T17prec62T17#222 >= 0
 InitiDisj_53T17_vs_60T17#315: - _53T17#9 + _60T17#55
                               + 78438 _53T17prec60T17#223 >= 210
 InitiDisj_60T17_vs_53T17#316: _53T17#9 - _60T17#55 - 78438 _53T17prec60T17#223
                               >= -77882
 Domain_53T17_vs_61T17#317:    _53T17prec61T17#224 >= 0
 Domain_53T17_vs_62T17#318:    _53T17prec62T17#225 >= 0
 Domain_60T17_vs_61T17#319:    _60T17prec61T17#226 >= 0
 Domain_60T17_vs_62T17#320:    _60T17prec62T17#227 >= 0
 Domain_61T17_vs_62T17#321:    _61T17prec62T17#228 >= 0
 Domain_40T18_vs_53T18#322:    _40T18prec53T18#229 >= 0
 Domain_40T18_vs_60T18#323:    _40T18prec60T18#230 >= 0
 Domain_40T18_vs_61T18#324:    _40T18prec61T18#231 >= 0
 Domain_40T18_vs_62T18#325:    _40T18prec62T18#232 >= 0
 InitiDisj_53T18_vs_60T18#326: - _53T18#8 + _60T18#54
                               + 78438 _53T18prec60T18#233 >= 280
 InitiDisj_60T18_vs_53T18#327: _53T18#8 - _60T18#54 - 78438 _53T18prec60T18#233
                               >= -78211
 Domain_53T18_vs_61T18#328:    _53T18prec61T18#234 >= 0
 Domain_53T18_vs_62T18#329:    _53T18prec62T18#235 >= 0
 Domain_60T18_vs_61T18#330:    _60T18prec61T18#236 >= 0
 Domain_60T18_vs_62T18#331:    _60T18prec62T18#237 >= 0
 Domain_61T18_vs_62T18#332:    _61T18prec62T18#238 >= 0
 Domain_40T19_vs_60T19#333:    _40T19prec60T19#239 >= 0
 Domain_40T19_vs_61T19#334:    _40T19prec61T19#240 >= 0
 Domain_40T19_vs_62T19#335:    _40T19prec62T19#241 >= 0
 Domain_60T19_vs_61T19#336:    _60T19prec61T19#242 >= 0
 Domain_60T19_vs_62T19#337:    _60T19prec62T19#243 >= 0
 InitiDisj_61T19_vs_62T19#338: - _61T19#81 + _62T19#106
                               + 78438 _61T19prec62T19#244 >= 195
 InitiDisj_62T19_vs_61T19#339: _61T19#81 - _62T19#106
                               - 78438 _61T19prec62T19#244 >= -78348
 Domain_40T20_vs_60T20#340:    _40T20prec60T20#245 >= 0
 Domain_40T20_vs_61T20#341:    _40T20prec61T20#246 >= 0
 Domain_40T20_vs_62T20#342:    _40T20prec62T20#247 >= 0
 Domain_60T20_vs_61T20#343:    _60T20prec61T20#248 >= 0
 Domain_60T20_vs_62T20#344:    _60T20prec62T20#249 >= 0
 Domain_61T20_vs_62T20#345:    _61T20prec62T20#250 >= 0
 Domain_40T21_vs_61T21#346:    _40T21prec61T21#251 >= 0
 Domain_40T21_vs_62T21#347:    _40T21prec62T21#252 >= 0
 Domain_61T21_vs_62T21#348:    _61T21prec62T21#253 >= 0
 Domain_40T22_vs_61T22#349:    _40T22prec61T22#254 >= 0
 Domain_40T22_vs_62T22#350:    _40T22prec62T22#255 >= 0
 Domain_61T22_vs_62T22#351:    _61T22prec62T22#256 >= 0
 Domain_40T23_vs_61T23#352:    _40T23prec61T23#257 >= 0
 Domain_40T23_vs_62T23#353:    _40T23prec62T23#258 >= 0
 Domain_61T23_vs_62T23#354:    _61T23prec62T23#259 >= 0
 Domain_40T24_vs_61T24#355:    _40T24prec61T24#260 >= 0
 Domain_40T24_vs_62T24#356:    _40T24prec62T24#261 >= 0
 Domain_61T24_vs_62T24#357:    _61T24prec62T24#262 >= 0
 Domain_40T25_vs_61T25#358:    _40T25prec61T25#263 >= 0
 Domain_40T25_vs_62T25#359:    _40T25prec62T25#264 >= 0
 Domain_61T25_vs_62T25#360:    _61T25prec62T25#265 >= 0
Bounds
 0 <= _20T10#0 <= 2147483647
 0 <= _20T9#1 <= 2147483647
 0 <= _20T8#2 <= 2147483647
 0 <= _20T7#3 <= 2147483647
 0 <= _20T6#4 <= 2147483647
 0 <= _20step1#5 <= 1
 0 <= _20step2#6 <= 1
 0 <= _20step3#7 <= 1
 0 <= _53T18#8 <= 2147483647
 0 <= _53T17#9 <= 2147483647
 0 <= _53T16#10 <= 2147483647
 0 <= _53T15#11 <= 2147483647
 0 <= _53T14#12 <= 2147483647
 0 <= _53T13#13 <= 2147483647
 0 <= _53T12#14 <= 2147483647
 0 <= _53T11#15 <= 2147483647
 0 <= _53T10#16 <= 2147483647
 0 <= _53T9#17 <= 2147483647
 0 <= _53T8#18 <= 2147483647
 0 <= _53T7#19 <= 2147483647
 0 <= _53T6#20 <= 2147483647
 0 <= _53step1#21 <= 1
 0 <= _53step2#22 <= 1
 0 <= _53step3#23 <= 1
 0 <= _40T9#24 <= 2147483647
 0 <= _40T10#25 <= 2147483647
 0 <= _40T11#26 <= 2147483647
 0 <= _40T12#27 <= 2147483647
 0 <= _40T13#28 <= 2147483647
 0 <= _40T14#29 <= 2147483647
 0 <= _40T15#30 <= 2147483647
 0 <= _40T16#31 <= 2147483647
 0 <= _40T17#32 <= 2147483647
 0 <= _40T18#33 <= 2147483647
 0 <= _40T19#34 <= 2147483647
 0 <= _40T20#35 <= 2147483647
 0 <= _40T21#36 <= 2147483647
 0 <= _40T22#37 <= 2147483647
 0 <= _40T23#38 <= 2147483647
 0 <= _40T24#39 <= 2147483647
 0 <= _40T25#40 <= 2147483647
 0 <= _40step1#41 <= 1
 0 <= _40step2#42 <= 1
 0 <= _40step3#43 <= 1
 0 <= _59T5#44 <= 2147483647
 0 <= _59T4#45 <= 2147483647
 0 <= _59T3#46 <= 2147483647
 0 <= _59T2#47 <= 2147483647
 0 <= _59T1#48 <= 2147483647
 0 <= _59step1#49 <= 1
 0 <= _59step2#50 <= 1
 0 <= _59step3#51 <= 1
 0 <= _60T20#52 <= 2147483647
 0 <= _60T19#53 <= 2147483647
 0 <= _60T18#54 <= 2147483647
 0 <= _60T17#55 <= 2147483647
 0 <= _60T16#56 <= 2147483647
 0 <= _60T15#57 <= 2147483647
 0 <= _60T14#58 <= 2147483647
 0 <= _60T13#59 <= 2147483647
 0 <= _60T12#60 <= 2147483647
 0 <= _60T11#61 <= 2147483647
 0 <= _60T10#62 <= 2147483647
 0 <= _60T9#63 <= 2147483647
 0 <= _60T8#64 <= 2147483647
 0 <= _60T7#65 <= 2147483647
 0 <= _60T6#66 <= 2147483647
 0 <= _60T5#67 <= 2147483647
 0 <= _60T4#68 <= 2147483647
 0 <= _60T3#69 <= 2147483647
 0 <= _60T2#70 <= 2147483647
 0 <= _60T1#71 <= 2147483647
 0 <= _60step1#72 <= 1
 0 <= _60step2#73 <= 1
 0 <= _60step3#74 <= 1
 0 <= _61T25#75 <= 2147483647
 0 <= _61T24#76 <= 2147483647
 0 <= _61T23#77 <= 2147483647
 0 <= _61T22#78 <= 2147483647
 0 <= _61T21#79 <= 2147483647
 0 <= _61T20#80 <= 2147483647
 0 <= _61T19#81 <= 2147483647
 0 <= _61T18#82 <= 2147483647
 0 <= _61T17#83 <= 2147483647
 0 <= _61T16#84 <= 2147483647
 0 <= _61T15#85 <= 2147483647
 0 <= _61T14#86 <= 2147483647
 0 <= _61T13#87 <= 2147483647
 0 <= _61T12#88 <= 2147483647
 0 <= _61T11#89 <= 2147483647
 0 <= _61T10#90 <= 2147483647
 0 <= _61T9#91 <= 2147483647
 0 <= _61T8#92 <= 2147483647
 0 <= _61T7#93 <= 2147483647
 0 <= _61T6#94 <= 2147483647
 0 <= _61step1#95 <= 1
 0 <= _61step2#96 <= 1
 0 <= _61step3#97 <= 1
 0 <= _62T11#98 <= 2147483647
 0 <= _62T12#99 <= 2147483647
 0 <= _62T13#100 <= 2147483647
 0 <= _62T14#101 <= 2147483647
 0 <= _62T15#102 <= 2147483647
 0 <= _62T16#103 <= 2147483647
 0 <= _62T17#104 <= 2147483647
 0 <= _62T18#105 <= 2147483647
 0 <= _62T19#106 <= 2147483647
 0 <= _62T20#107 <= 2147483647
 0 <= _62T21#108 <= 2147483647
 0 <= _62T22#109 <= 2147483647
 0 <= _62T23#110 <= 2147483647
 0 <= _62T24#111 <= 2147483647
 0 <= _62T25#112 <= 2147483647
 0 <= _62step1#113 <= 1
 0 <= _62step2#114 <= 1
 0 <= _62step3#115 <= 1
 0 <= _59T1prec60T1#116 <= 1
 0 <= _59T2prec60T2#117 <= 1
 0 <= _59T3prec60T3#118 <= 1
 0 <= _59T4prec60T4#119 <= 1
 0 <= _59T5prec60T5#120 <= 1
 0 <= _20T6prec53T6#121 <= 1
 0 <= _20T6prec60T6#122 <= 1
 0 <= _20T6prec61T6#123 <= 1
 0 <= _53T6prec60T6#124 <= 1
 0 <= _53T6prec61T6#125 <= 1
 0 <= _60T6prec61T6#126 <= 1
 0 <= _20T7prec53T7#127 <= 1
 0 <= _20T7prec60T7#128 <= 1
 0 <= _20T7prec61T7#129 <= 1
 0 <= _53T7prec60T7#130 <= 1
 0 <= _53T7prec61T7#131 <= 1
 0 <= _60T7prec61T7#132 <= 1
 0 <= _20T8prec53T8#133 <= 1
 0 <= _20T8prec60T8#134 <= 1
 0 <= _20T8prec61T8#135 <= 1
 0 <= _53T8prec60T8#136 <= 1
 0 <= _53T8prec61T8#137 <= 1
 0 <= _60T8prec61T8#138 <= 1
 0 <= _20T9prec40T9#139 <= 1
 0 <= _20T9prec53T9#140 <= 1
 0 <= _20T9prec60T9#141 <= 1
 0 <= _20T9prec61T9#142 <= 1
 0 <= _40T9prec53T9#143 <= 1
 0 <= _40T9prec60T9#144 <= 1
 0 <= _40T9prec61T9#145 <= 1
 0 <= _53T9prec60T9#146 <= 1
 0 <= _53T9prec61T9#147 <= 1
 0 <= _60T9prec61T9#148 <= 1
 0 <= _20T10prec40T10#149 <= 1
 0 <= _20T10prec53T10#150 <= 1
 0 <= _20T10prec60T10#151 <= 1
 0 <= _20T10prec61T10#152 <= 1
 0 <= _40T10prec53T10#153 <= 1
 0 <= _40T10prec60T10#154 <= 1
 0 <= _40T10prec61T10#155 <= 1
 0 <= _53T10prec60T10#156 <= 1
 0 <= _53T10prec61T10#157 <= 1
 0 <= _60T10prec61T10#158 <= 1
 0 <= _40T11prec53T11#159 <= 1
 0 <= _40T11prec60T11#160 <= 1
 0 <= _40T11prec61T11#161 <= 1
 0 <= _40T11prec62T11#162 <= 1
 0 <= _53T11prec60T11#163 <= 1
 0 <= _53T11prec61T11#164 <= 1
 0 <= _53T11prec62T11#165 <= 1
 0 <= _60T11prec61T11#166 <= 1
 0 <= _60T11prec62T11#167 <= 1
 0 <= _61T11prec62T11#168 <= 1
 0 <= _40T12prec53T12#169 <= 1
 0 <= _40T12prec60T12#170 <= 1
 0 <= _40T12prec61T12#171 <= 1
 0 <= _40T12prec62T12#172 <= 1
 0 <= _53T12prec60T12#173 <= 1
 0 <= _53T12prec61T12#174 <= 1
 0 <= _53T12prec62T12#175 <= 1
 0 <= _60T12prec61T12#176 <= 1
 0 <= _60T12prec62T12#177 <= 1
 0 <= _61T12prec62T12#178 <= 1
 0 <= _40T13prec53T13#179 <= 1
 0 <= _40T13prec60T13#180 <= 1
 0 <= _40T13prec61T13#181 <= 1
 0 <= _40T13prec62T13#182 <= 1
 0 <= _53T13prec60T13#183 <= 1
 0 <= _53T13prec61T13#184 <= 1
 0 <= _53T13prec62T13#185 <= 1
 0 <= _60T13prec61T13#186 <= 1
 0 <= _60T13prec62T13#187 <= 1
 0 <= _61T13prec62T13#188 <= 1
 0 <= _40T14prec53T14#189 <= 1
 0 <= _40T14prec60T14#190 <= 1
 0 <= _40T14prec61T14#191 <= 1
 0 <= _40T14prec62T14#192 <= 1
 0 <= _53T14prec60T14#193 <= 1
 0 <= _53T14prec61T14#194 <= 1
 0 <= _53T14prec62T14#195 <= 1
 0 <= _60T14prec61T14#196 <= 1
 0 <= _60T14prec62T14#197 <= 1
 0 <= _61T14prec62T14#198 <= 1
 0 <= _40T15prec53T15#199 <= 1
 0 <= _40T15prec60T15#200 <= 1
 0 <= _40T15prec61T15#201 <= 1
 0 <= _40T15prec62T15#202 <= 1
 0 <= _53T15prec60T15#203 <= 1
 0 <= _53T15prec61T15#204 <= 1
 0 <= _53T15prec62T15#205 <= 1
 0 <= _60T15prec61T15#206 <= 1
 0 <= _60T15prec62T15#207 <= 1
 0 <= _61T15prec62T15#208 <= 1
 0 <= _40T16prec53T16#209 <= 1
 0 <= _40T16prec60T16#210 <= 1
 0 <= _40T16prec61T16#211 <= 1
 0 <= _40T16prec62T16#212 <= 1
 0 <= _53T16prec60T16#213 <= 1
 0 <= _53T16prec61T16#214 <= 1
 0 <= _53T16prec62T16#215 <= 1
 0 <= _60T16prec61T16#216 <= 1
 0 <= _60T16prec62T16#217 <= 1
 0 <= _61T16prec62T16#218 <= 1
 0 <= _40T17prec53T17#219 <= 1
 0 <= _40T17prec60T17#220 <= 1
 0 <= _40T17prec61T17#221 <= 1
 0 <= _40T17prec62T17#222 <= 1
 0 <= _53T17prec60T17#223 <= 1
 0 <= _53T17prec61T17#224 <= 1
 0 <= _53T17prec62T17#225 <= 1
 0 <= _60T17prec61T17#226 <= 1
 0 <= _60T17prec62T17#227 <= 1
 0 <= _61T17prec62T17#228 <= 1
 0 <= _40T18prec53T18#229 <= 1
 0 <= _40T18prec60T18#230 <= 1
 0 <= _40T18prec61T18#231 <= 1
 0 <= _40T18prec62T18#232 <= 1
 0 <= _53T18prec60T18#233 <= 1
 0 <= _53T18prec61T18#234 <= 1
 0 <= _53T18prec62T18#235 <= 1
 0 <= _60T18prec61T18#236 <= 1
 0 <= _60T18prec62T18#237 <= 1
 0 <= _61T18prec62T18#238 <= 1
 0 <= _40T19prec60T19#239 <= 1
 0 <= _40T19prec61T19#240 <= 1
 0 <= _40T19prec62T19#241 <= 1
 0 <= _60T19prec61T19#242 <= 1
 0 <= _60T19prec62T19#243 <= 1
 0 <= _61T19prec62T19#244 <= 1
 0 <= _40T20prec60T20#245 <= 1
 0 <= _40T20prec61T20#246 <= 1
 0 <= _40T20prec62T20#247 <= 1
 0 <= _60T20prec61T20#248 <= 1
 0 <= _60T20prec62T20#249 <= 1
 0 <= _61T20prec62T20#250 <= 1
 0 <= _40T21prec61T21#251 <= 1
 0 <= _40T21prec62T21#252 <= 1
 0 <= _61T21prec62T21#253 <= 1
 0 <= _40T22prec61T22#254 <= 1
 0 <= _40T22prec62T22#255 <= 1
 0 <= _61T22prec62T22#256 <= 1
 0 <= _40T23prec61T23#257 <= 1
 0 <= _40T23prec62T23#258 <= 1
 0 <= _61T23prec62T23#259 <= 1
 0 <= _40T24prec61T24#260 <= 1
 0 <= _40T24prec62T24#261 <= 1
 0 <= _61T24prec62T24#262 <= 1
 0 <= _40T25prec61T25#263 <= 1
 0 <= _40T25prec62T25#264 <= 1
 0 <= _61T25prec62T25#265 <= 1
Binaries
 _20step1#5  _20step2#6  _20step3#7  _53step1#21  _53step2#22  _53step3#23 
 _40step1#41  _40step2#42  _40step3#43  _59step1#49  _59step2#50  _59step3#51 
 _60step1#72  _60step2#73  _60step3#74  _61step1#95  _61step2#96  _61step3#97 
 _62step1#113  _62step2#114  _62step3#115  _59T1prec60T1#116 
 _59T2prec60T2#117  _59T3prec60T3#118  _59T4prec60T4#119  _59T5prec60T5#120 
 _20T6prec53T6#121  _20T6prec60T6#122  _20T6prec61T6#123  _53T6prec60T6#124 
 _53T6prec61T6#125  _60T6prec61T6#126  _20T7prec53T7#127  _20T7prec60T7#128 
 _20T7prec61T7#129  _53T7prec60T7#130  _53T7prec61T7#131  _60T7prec61T7#132 
 _20T8prec53T8#133  _20T8prec60T8#134  _20T8prec61T8#135  _53T8prec60T8#136 
 _53T8prec61T8#137  _60T8prec61T8#138  _20T9prec40T9#139  _20T9prec53T9#140 
 _20T9prec60T9#141  _20T9prec61T9#142  _40T9prec53T9#143  _40T9prec60T9#144 
 _40T9prec61T9#145  _53T9prec60T9#146  _53T9prec61T9#147  _60T9prec61T9#148 
 _20T10prec40T10#149  _20T10prec53T10#150  _20T10prec60T10#151 
 _20T10prec61T10#152  _40T10prec53T10#153  _40T10prec60T10#154 
 _40T10prec61T10#155  _53T10prec60T10#156  _53T10prec61T10#157 
 _60T10prec61T10#158  _40T11prec53T11#159  _40T11prec60T11#160 
 _40T11prec61T11#161  _40T11prec62T11#162  _53T11prec60T11#163 
 _53T11prec61T11#164  _53T11prec62T11#165  _60T11prec61T11#166 
 _60T11prec62T11#167  _61T11prec62T11#168  _40T12prec53T12#169 
 _40T12prec60T12#170  _40T12prec61T12#171  _40T12prec62T12#172 
 _53T12prec60T12#173  _53T12prec61T12#174  _53T12prec62T12#175 
 _60T12prec61T12#176  _60T12prec62T12#177  _61T12prec62T12#178 
 _40T13prec53T13#179  _40T13prec60T13#180  _40T13prec61T13#181 
 _40T13prec62T13#182  _53T13prec60T13#183  _53T13prec61T13#184 
 _53T13prec62T13#185  _60T13prec61T13#186  _60T13prec62T13#187 
 _61T13prec62T13#188  _40T14prec53T14#189  _40T14prec60T14#190 
 _40T14prec61T14#191  _40T14prec62T14#192  _53T14prec60T14#193 
 _53T14prec61T14#194  _53T14prec62T14#195  _60T14prec61T14#196 
 _60T14prec62T14#197  _61T14prec62T14#198  _40T15prec53T15#199 
 _40T15prec60T15#200  _40T15prec61T15#201  _40T15prec62T15#202 
 _53T15prec60T15#203  _53T15prec61T15#204  _53T15prec62T15#205 
 _60T15prec61T15#206  _60T15prec62T15#207  _61T15prec62T15#208 
 _40T16prec53T16#209  _40T16prec60T16#210  _40T16prec61T16#211 
 _40T16prec62T16#212  _53T16prec60T16#213  _53T16prec61T16#214 
 _53T16prec62T16#215  _60T16prec61T16#216  _60T16prec62T16#217 
 _61T16prec62T16#218  _40T17prec53T17#219  _40T17prec60T17#220 
 _40T17prec61T17#221  _40T17prec62T17#222  _53T17prec60T17#223 
 _53T17prec61T17#224  _53T17prec62T17#225  _60T17prec61T17#226 
 _60T17prec62T17#227  _61T17prec62T17#228  _40T18prec53T18#229 
 _40T18prec60T18#230  _40T18prec61T18#231  _40T18prec62T18#232 
 _53T18prec60T18#233  _53T18prec61T18#234  _53T18prec62T18#235 
 _60T18prec61T18#236  _60T18prec62T18#237  _61T18prec62T18#238 
 _40T19prec60T19#239  _40T19prec61T19#240  _40T19prec62T19#241 
 _60T19prec61T19#242  _60T19prec62T19#243  _61T19prec62T19#244 
 _40T20prec60T20#245  _40T20prec61T20#246  _40T20prec62T20#247 
 _60T20prec61T20#248  _60T20prec62T20#249  _61T20prec62T20#250 
 _40T21prec61T21#251  _40T21prec62T21#252  _61T21prec62T21#253 
 _40T22prec61T22#254  _40T22prec62T22#255  _61T22prec62T22#256 
 _40T23prec61T23#257  _40T23prec62T23#258  _61T23prec62T23#259 
 _40T24prec61T24#260  _40T24prec62T24#261  _61T24prec62T24#262 
 _40T25prec61T25#263  _40T25prec62T25#264  _61T25prec62T25#265 
End
