ModelsBigM/BigMLazyCon_19.log
CPXPARAM_MIP_Tolerances_MIPGap                   0
Lazy constraint(s) or lazy constraint callback is present.
    Disabling dual reductions (CPX_PARAM_REDUCE) in presolve.
    Disabling non-linear reductions (CPX_PARAM_PRELINEAR) in presolve.
         Disabling repeat represolve because of lazy constraint/incumbent callback.
Tried aggregator 1 time.
MIP Presolve eliminated 245 rows and 7 columns.
MIP Presolve modified 1 coefficients.
Reduced MIP has 116 rows, 259 columns, and 246 nonzeros.
Reduced MIP has 164 binaries, 0 generals, 0 SOSs, and 0 indicators.
Presolve time = 0.00 sec. (0.22 ticks)
Probing time = 0.00 sec. (0.09 ticks)
Clique table members: 36.
MIP emphasis: balance optimality and feasibility.
MIP search method: traditional branch-and-cut.
Parallel mode: none, using 1 thread.
Root relaxation solution time = 0.00 sec. (0.13 ticks)

        Nodes                                         Cuts/
   Node  Left     Objective  IInf  Best Integer    Best Bound    ItCnt     Gap         Variable B NodeID Parent  Depth

      0     0        7.0000     7                      7.0000        7         
      0     0       11.0000     8                    Cuts: 41       83         
      0     0       11.0000     3                    Cuts: 10       88         
      0     0       11.0000     2                   Covers: 1       90         
      0     0       11.0000     1                   Covers: 1       92         
*     0+    0                           21.0000       11.0000            47.62%
*     0+    0                           11.0000       11.0000             0.00%
      0     0        cutoff             11.0000       11.0000       92    0.00%                        0             0
Elapsed time = 0.03 sec. (5.97 ticks, tree = 0.01 MB, solutions = 2)

Clique cuts applied:  25
Cover cuts applied:  3
Implied bound cuts applied:  1
Mixed integer rounding cuts applied:  15
User cuts applied:  36

Root node processing (before b&c):
  Real time             =    0.03 sec. (5.99 ticks)
Sequential b&c:
  Real time             =    0.00 sec. (0.00 ticks)
                          ------------
Total (root+branch&cut) =    0.03 sec. (5.99 ticks)
